NAME: map9_180
TYPE: TSP
COMMENT: autogenerated using a wonderful map creator
DIMENSION: 210
EDGE_WEIGHT_TYPE: EUC_2D
NODE_COORD_SECTION
1 21.0 52.0
2 22.0 52.0
3 23.0 52.0
4 21.0 54.0
5 22.0 54.0
6 23.0 54.0
7 22.0 11.0
8 22.0 10.0
9 75.0 8.0
10 74.0 8.0
11 67.0 37.0
12 67.0 38.0
13 67.0 39.0
14 67.0 40.0
15 67.0 41.0
16 24.0 52.0
17 25.0 52.0
18 24.0 54.0
19 25.0 54.0
20 22.0 9.0
21 22.0 8.0
22 22.0 7.0
23 73.0 8.0
24 72.0 8.0
25 71.0 8.0
26 67.0 42.0
27 67.0 43.0
28 67.0 44.0
29 67.0 45.0
30 67.0 46.0
31 21.0 51.0
32 22.0 51.0
33 23.0 51.0
34 21.0 55.0
35 22.0 55.0
36 23.0 55.0
37 23.0 11.0
38 23.0 10.0
39 75.0 9.0
40 74.0 9.0
41 66.0 37.0
42 66.0 38.0
43 66.0 39.0
44 66.0 40.0
45 66.0 41.0
46 24.0 51.0
47 25.0 51.0
48 24.0 55.0
49 25.0 55.0
50 23.0 9.0
51 23.0 8.0
52 23.0 7.0
53 73.0 9.0
54 72.0 9.0
55 71.0 9.0
56 66.0 42.0
57 66.0 43.0
58 66.0 44.0
59 66.0 45.0
60 66.0 46.0
61 15.0 21.0
62 53.0 23.0
63 8.0 55.0
64 42.0 57.0
65 56.0 19.0
66 11.0 51.0
67 31.0 29.0
68 69.0 22.0
69 60.0 19.0
70 51.0 16.0
71 58.0 31.0
72 39.0 60.0
73 40.0 59.0
74 52.0 24.0
75 43.0 21.0
76 43.0 30.0
77 42.0 50.0
78 31.0 22.0
79 44.0 56.0
80 22.0 19.0
81 57.0 50.0
82 22.0 28.0
83 45.0 30.0
84 61.0 29.0
85 6.0 59.0
86 50.0 29.0
87 14.0 51.0
88 62.0 3.0
89 58.0 51.0
90 59.0 50.0
91 42.0 52.0
92 56.0 14.0
93 53.0 27.0
94 39.0 37.0
95 56.0 32.0
96 5.0 23.0
97 67.0 29.0
98 7.0 51.0
99 41.0 28.0
100 10.0 22.0
101 43.0 34.0
102 42.0 45.0
103 46.0 27.0
104 40.0 20.0
105 44.0 51.0
106 6.0 27.0
107 34.0 25.0
108 11.0 57.0
109 12.0 22.0
110 14.0 19.0
111 67.0 22.0
112 58.0 19.0
113 54.0 37.0
114 40.0 56.0
115 41.0 21.0
116 58.0 37.0
117 61.0 24.0
118 19.0 27.0
119 44.0 26.0
120 41.0 39.0
121 25.0 22.0
122 2.0 20.0
123 44.0 35.0
124 42.0 47.0
125 10.0 42.0
126 58.0 3.0
127 38.0 43.0
128 50.0 8.0
129 4.0 20.0
130 70.0 20.0
131 61.0 17.0
132 54.0 51.0
133 68.0 22.0
134 63.0 17.0
135 11.0 43.0
136 49.0 27.0
137 60.0 57.0
138 31.0 21.0
139 40.0 33.0
140 40.0 42.0
141 61.0 10.0
142 60.0 20.0
143 75.0 18.0
144 53.0 45.0
145 52.0 25.0
146 7.0 57.0
147 17.0 25.0
148 33.0 21.0
149 55.0 51.0
150 54.0 53.0
151 14.0 53.0
152 57.0 33.0
153 41.0 46.0
154 11.0 54.0
155 53.0 29.0
156 67.0 28.0
157 69.0 25.0
158 12.0 37.0
159 45.0 34.0
160 17.0 27.0
161 33.0 23.0
162 10.0 21.0
163 76.0 21.0
164 62.0 4.0
165 56.0 52.0
166 51.0 31.0
167 54.0 9.0
168 43.0 36.0
169 60.0 52.0
170 60.0 61.0
171 57.0 44.0
172 23.0 21.0
173 40.0 37.0
174 55.0 19.0
175 13.0 50.0
176 61.0 14.0
177 58.0 27.0
178 45.0 27.0
179 36.0 24.0
180 27.0 21.0
181 10.0 60.0
182 7.0 52.0
183 54.0 39.0
184 39.0 50.0
185 62.0 6.0
186 47.0 51.0
187 11.0 31.0
188 43.0 29.0
189 9.0 43.0
190 15.0 22.0
191 20.0 18.0
192 72.0 19.0
193 41.0 50.0
194 6.0 28.0
195 67.0 14.0
196 67.0 23.0
197 69.0 20.0
198 45.0 20.0
199 42.0 21.0
200 76.0 16.0
201 68.0 21.0
202 14.0 50.0
203 41.0 34.0
204 57.0 39.0
205 9.0 54.0
206 53.0 17.0
207 73.0 29.0
208 61.0 9.0
209 39.0 36.0
210 53.0 44.0
211 7.0 56.0
212 30.0 21.0
213 37.0 36.0
214 3.0 52.0
215 43.0 33.0
216 6.0 23.0
217 16.0 25.0
218 53.0 28.0
219 55.0 25.0
220 12.0 39.0
221 45.0 51.0
222 14.0 45.0
223 66.0 28.0
224 15.0 19.0
225 38.0 21.0
226 62.0 15.0
227 60.0 60.0
228 18.0 24.0
229 71.0 27.0
230 78.0 20.0
231 10.0 50.0
232 39.0 40.0
233 14.0 20.0
234 57.0 55.0
235 56.0 35.0
236 5.0 26.0
237 56.0 44.0
238 30.0 25.0
239 54.0 56.0
240 32.0 28.0
START_DEPOT_SECTION
1
2
3
4
5
6
7
8
9
10
11
12
13
14
15
16
17
18
19
20
21
22
23
24
25
26
27
28
29
30
-1
END_DEPOT_SECTION
31
32
33
34
35
36
37
38
39
40
41
42
43
44
45
46
47
48
49
50
51
52
53
54
55
56
57
58
59
60
-1
EOF
